NAME : prob10c.4070.tour
COMMENT : Cost = 0_4070
COMMENT : Found by LKH [Keld Helsgaun] Sun Sep 17 01:05:32 2017
TYPE : TOUR
DIMENSION : 21
TOUR_SECTION
1
15
18
12
16
14
2
17
13
20
6
4
7
5
8
21
19
11
9
3
10
-1
EOF
